Read MPS format model from file dat/rmp/4node-base_2048_27.mps
Reading time = 0.16 seconds
: 2108 rows, 12968 columns, 480896 nonzeros
Gurobi Optimizer version 9.0.0 build v9.0.0rc2 (linux64)
Optimize a model with 2108 rows, 12968 columns and 480896 nonzeros
Model fingerprint: 0x0c93a321
Coefficient statistics:
  Matrix range     [3e-03, 2e+01]
  Objective range  [4e-02, 1e+04]
  Bounds range     [0e+00, 0e+00]
  RHS range        [1e+00, 8e+01]
Ordering time: 0.00s

Barrier statistics:
 AA' NZ     : 1.068e+05
 Factor NZ  : 1.325e+05 (roughly 7 MBytes of memory)
 Factor Ops : 8.585e+06 (less than 1 second per iteration)
 Threads    : 1

                  Objective                Residual
Iter       Primal          Dual         Primal    Dual     Compl     Time
   0   1.98359407e+07  0.00000000e+00  6.03e+02 2.40e+02  4.63e+04     0s
   1   5.97102797e+05 -1.21545696e+07  1.70e+01 9.21e+02  2.34e+03     0s
   2   6.83815639e+03 -5.33265002e+06  3.44e-02 1.47e+01  4.16e+02     0s
   3   1.12256929e+03 -8.99696146e+05  2.17e-03 1.95e+00  6.99e+01     0s
   4  -1.00552263e+02 -1.24775944e+05  3.34e-05 2.54e-01  9.67e+00     0s
   5  -2.71314852e+02 -6.42342642e+03  2.23e-06 9.58e-03  4.76e-01     0s
   6  -3.21590948e+02 -7.56375578e+02  3.87e-10 4.42e-04  3.36e-02     0s
   7  -3.05841090e+02 -5.31007189e+02  5.28e-09 9.98e-05  1.74e-02     0s
   8  -3.70420199e+02 -4.60278193e+02  9.54e-09 5.28e-06  6.93e-03     0s
   9  -3.96005154e+02 -4.35716535e+02  2.60e-08 9.89e-07  3.06e-03     0s
  10  -4.06796090e+02 -4.30509572e+02  7.63e-08 3.17e-07  1.83e-03     0s
  11  -4.13459209e+02 -4.27253841e+02  3.83e-07 1.22e-07  1.06e-03     0s
  12  -4.19126486e+02 -4.25622528e+02  7.60e-07 4.82e-08  5.01e-04     0s
  13  -4.22165278e+02 -4.24507594e+02  9.79e-07 1.25e-08  1.81e-04     1s
  14  -4.23453862e+02 -4.23838062e+02  7.52e-07 5.37e-10  2.96e-05     1s
  15  -4.23453990e+02 -4.23795311e+02  8.74e-07 2.77e-10  2.63e-05     1s
  16  -4.23454031e+02 -4.23774613e+02  8.86e-07 1.05e-10  2.47e-05     1s
  17  -4.23454615e+02 -4.23765161e+02  9.15e-07 3.36e-11  2.39e-05     1s
  18  -4.23454787e+02 -4.23761798e+02  1.11e-06 2.91e-11  2.37e-05     1s
  19  -4.23454952e+02 -4.23759595e+02  1.26e-06 2.27e-11  2.35e-05     1s
  20  -4.23455073e+02 -4.23757830e+02  1.82e-06 1.42e-10  2.33e-05     1s
  21  -4.23455174e+02 -4.23757991e+02  2.66e-06 2.19e-10  2.33e-05     1s
  22  -4.23455890e+02 -4.23757936e+02  2.41e-06 3.18e-10  2.33e-05     1s
  23  -4.23456013e+02 -4.23757526e+02  3.37e-06 3.05e-10  2.32e-05     1s
  24  -4.23456261e+02 -4.23757326e+02  9.00e-06 2.57e-10  2.32e-05     1s
  25  -4.23456292e+02 -4.23757375e+02  1.59e-05 2.56e-10  2.32e-05     1s
  26  -4.23457014e+02 -4.23757233e+02  7.41e-06 2.36e-10  2.31e-05     1s
  27  -4.23458802e+02 -4.23758918e+02  8.81e-06 1.38e-10  2.31e-05     1s
  28  -4.23459908e+02 -4.23757218e+02  1.99e-05 9.58e-11  2.29e-05     1s
  29  -4.23461027e+02 -4.23756718e+02  3.11e-05 5.22e-11  2.28e-05     1s
  30  -4.23472270e+02 -4.23757587e+02  3.40e-05 3.15e-11  2.20e-05     1s
  31  -4.23477254e+02 -4.23757299e+02  3.75e-05 5.45e-11  2.16e-05     1s
  32  -4.23484891e+02 -4.23757620e+02  4.91e-05 2.43e-11  2.10e-05     1s
  33  -4.23488167e+02 -4.23756665e+02  4.67e-05 1.86e-11  2.07e-05     1s
  34  -4.23490862e+02 -4.23756899e+02  5.69e-05 1.84e-11  2.04e-05     1s
  35  -4.23495005e+02 -4.23757158e+02  7.55e-05 1.46e-11  2.01e-05     1s
  36  -4.23497045e+02 -4.23756919e+02  1.16e-04 5.18e-11  1.99e-05     1s
  37  -4.23515955e+02 -4.23758823e+02  1.60e-04 3.14e-11  1.85e-05     1s
  38  -4.23536997e+02 -4.23757459e+02  2.11e-04 3.61e-11  1.69e-05     1s
  39  -4.23554079e+02 -4.23756590e+02  3.10e-04 7.58e-11  1.52e-05     1s
  40  -4.23600527e+02 -4.23756161e+02  6.81e-04 3.97e-11  1.10e-05     2s
  41  -4.23639309e+02 -4.23755888e+02  5.50e-04 2.22e-11  8.88e-06     2s
  42  -4.23665461e+02 -4.23755853e+02  9.09e-04 1.46e-11  6.03e-06     2s
  43  -4.23669933e+02 -4.23755829e+02  8.50e-04 1.46e-11  5.81e-06     2s
  44  -4.23717012e+02 -4.23755825e+02  5.56e-04 1.46e-11  3.24e-06     2s
  45  -4.23718198e+02 -4.23755732e+02  5.51e-04 2.91e-11  3.14e-06     2s
  46  -4.23731767e+02 -4.23755660e+02  6.60e-04 1.46e-11  2.52e-06     2s
  47  -4.23732247e+02 -4.23755653e+02  3.88e-04 1.46e-11  2.36e-06     2s
  48  -4.23735152e+02 -4.23755798e+02  6.57e-04 1.46e-11  1.65e-06     2s
  49  -4.23751366e+02 -4.23755647e+02  3.35e-04 1.46e-11  9.54e-07     2s
  50  -4.23752326e+02 -4.23755655e+02  3.08e-04 1.46e-11  8.70e-07     2s
  51  -4.23750945e+02 -4.23755668e+02  3.40e-04 1.46e-11  6.64e-07     2s
  52  -4.23751893e+02 -4.23755569e+02  3.62e-04 1.46e-11  1.59e-07     2s
  53  -4.23750998e+02 -4.23755570e+02  3.68e-04 2.91e-11  1.53e-07     2s
  54  -4.23752763e+02 -4.23755558e+02  3.31e-04 2.91e-11  1.35e-07     2s
  55  -4.23757239e+02 -4.23755592e+02  5.34e-04 2.91e-11  1.10e-07     2s
  56  -4.23758056e+02 -4.23755592e+02  4.61e-04 2.91e-11  9.32e-08     2s
  57  -4.23757995e+02 -4.23755958e+02  4.72e-04 1.46e-11  1.15e-07     2s
  58  -4.23762485e+02 -4.23756167e+02  4.06e-04 1.46e-11  9.47e-08     2s
  59  -4.23768350e+02 -4.23756196e+02  1.67e-03 1.46e-11  5.93e-08     2s
  60  -4.23757329e+02 -4.23756271e+02  5.76e-04 1.46e-11  4.65e-08     2s
  61  -4.23760671e+02 -4.23756293e+02  5.86e-04 1.46e-11  4.22e-08     2s
  62  -4.23752155e+02 -4.23756231e+02  6.58e-04 2.91e-11  3.42e-08     2s
  63  -4.23751311e+02 -4.23756234e+02  6.49e-04 1.46e-11  3.14e-08     2s
  64  -4.23751904e+02 -4.23756276e+02  5.23e-04 1.46e-11  3.06e-08     2s
  65  -4.23755891e+02 -4.23756378e+02  5.68e-04 2.91e-11  1.07e-08     2s
  66  -4.23775950e+02 -4.23756580e+02  1.01e-03 1.46e-11  1.36e-08     2s
  67  -4.23772271e+02 -4.23756507e+02  8.13e-04 1.46e-11  5.02e-09     2s
  68  -4.23770509e+02 -4.23756508e+02  9.54e-04 1.46e-11  3.78e-09     2s
  69  -4.23770970e+02 -4.23756332e+02  1.17e-03 1.46e-11  7.69e-10     2s
  70  -4.23772054e+02 -4.23756256e+02  7.35e-04 1.46e-11  5.77e-10     3s
  71  -4.23771757e+02 -4.23756350e+02  7.84e-04 1.46e-11  5.01e-11     3s
  72  -4.23765915e+02 -4.23756361e+02  7.21e-04 1.46e-11  9.76e-12     3s

Barrier performed 72 iterations in 2.60 seconds
Sub-optimal termination - objective -4.23453862e+02

Solve time: 2.604992077
Barrier iterations: 72
